40
1 0 1
2 1 1
3 2 1
4 0 1
4 2 1
5 1 1
5 3 1
6 4 1
6 5 1
7 0 1
7 2 1
7 6 1
8 2 1
8 4 1
8 6 1
8 7 1
9 0 1
9 2 1
9 3 1
9 4 1
9 7 1
10 1 1
10 4 1
10 6 1
10 7 1
10 8 1
10 9 1
11 0 1
11 2 1
11 3 1
11 6 1
12 2 1
12 3 1
12 4 1
12 5 1
12 8 1
12 9 1
13 1 1
13 6 1
13 9 1
13 12 1
14 2 1
14 3 1
14 4 1
14 5 1
14 9 1
14 10 1
14 11 1
14 12 1
14 13 1
15 3 1
15 6 1
15 9 1
15 10 1
15 11 1
16 2 1
16 4 1
16 5 1
16 6 1
16 7 1
16 8 1
16 9 1
16 11 1
16 12 1
16 13 1
16 14 1
17 0 1
17 1 1
17 2 1
17 3 1
17 7 1
17 8 1
17 11 1
17 12 1
17 14 1
17 15 1
18 2 1
18 5 1
18 6 1
18 7 1
18 8 1
18 9 1
18 11 1
18 12 1
18 14 1
18 15 1
19 0 1
19 2 1
19 3 1
19 5 1
19 7 1
19 8 1
19 9 1
19 10 1
19 13 1
19 14 1
19 15 1
19 16 1
19 17 1
20 0 1
20 4 1
20 5 1
20 6 1
20 7 1
20 9 1
20 12 1
20 14 1
20 15 1
20 18 1
21 1 1
21 4 1
21 5 1
21 6 1
21 8 1
21 12 1
21 13 1
21 14 1
21 17 1
21 18 1
21 20 1
22 0 1
22 2 1
22 3 1
22 8 1
22 10 1
22 12 1
22 13 1
22 15 1
22 16 1
23 0 1
23 1 1
23 5 1
23 7 1
23 8 1
23 9 1
23 10 1
23 12 1
23 13 1
23 14 1
23 15 1
23 18 1
24 0 1
24 1 1
24 2 1
24 6 1
24 7 1
24 8 1
24 12 1
24 14 1
24 18 1
24 21 1
24 22 1
24 23 1
25 0 1
25 6 1
25 8 1
25 9 1
25 10 1
25 11 1
25 17 1
26 1 1
26 3 1
26 4 1
26 6 1
26 8 1
26 9 1
26 13 1
26 15 1
26 20 1
26 22 1
26 24 1
27 1 1
27 2 1
27 5 1
27 6 1
27 9 1
27 10 1
27 11 1
27 14 1
27 15 1
27 16 1
27 18 1
27 19 1
27 22 1
27 25 1
27 26 1
28 1 1
28 2 1
28 3 1
28 4 1
28 5 1
28 6 1
28 8 1
28 9 1
28 13 1
28 14 1
28 15 1
28 16 1
28 19 1
28 20 1
28 21 1
28 22 1
28 24 1
28 27 1
29 0 1
29 2 1
29 4 1
29 9 1
29 10 1
29 16 1
29 17 1
29 18 1
29 20 1
29 21 1
29 22 1
29 24 1
29 25 1
29 26 1
30 2 1
30 3 1
30 4 1
30 6 1
30 9 1
30 11 1
30 12 1
30 16 1
30 17 1
30 18 1
30 20 1
30 23 1
30 28 1
31 4 1
31 6 1
31 7 1
31 8 1
31 9 1
31 10 1
31 11 1
31 13 1
31 15 1
31 19 1
31 22 1
31 23 1
31 25 1
31 26 1
31 29 1
32 0 1
32 2 1
32 3 1
32 7 1
32 8 1
32 9 1
32 11 1
32 12 1
32 13 1
32 14 1
32 15 1
32 17 1
32 19 1
32 20 1
32 21 1
32 24 1
32 26 1
32 30 1
32 31 1
33 2 1
33 4 1
33 5 1
33 6 1
33 8 1
33 10 1
33 11 1
33 12 1
33 15 1
33 17 1
33 18 1
33 19 1
33 20 1
33 22 1
33 23 1
33 25 1
33 26 1
33 27 1
33 28 1
33 29 1
33 30 1
33 31 1
33 32 1
34 1 1
34 2 1
34 3 1
34 5 1
34 6 1
34 11 1
34 12 1
34 15 1
34 17 1
34 18 1
34 21 1
34 25 1
34 26 1
34 27 1
34 28 1
34 31 1
34 32 1
34 33 1
35 3 1
35 4 1
35 5 1
35 6 1
35 7 1
35 9 1
35 10 1
35 11 1
35 12 1
35 15 1
35 16 1
35 17 1
35 18 1
35 19 1
35 24 1
35 28 1
35 30 1
35 31 1
35 32 1
35 33 1
35 34 1
36 0 1
36 3 1
36 4 1
36 6 1
36 7 1
36 12 1
36 13 1
36 14 1
36 17 1
36 19 1
36 20 1
36 22 1
36 24 1
36 25 1
36 28 1
36 33 1
36 34 1
36 35 1
37 1 1
37 8 1
37 11 1
37 13 1
37 19 1
37 21 1
37 22 1
37 25 1
37 26 1
37 28 1
37 31 1
37 32 1
37 34 1
37 36 1
38 0 1
38 3 1
38 4 1
38 9 1
38 11 1
38 12 1
38 15 1
38 17 1
38 18 1
38 19 1
38 20 1
38 21 1
38 23 1
38 24 1
38 25 1
38 29 1
38 32 1
39 2 1
39 7 1
39 8 1
39 11 1
39 13 1
39 17 1
39 19 1
39 22 1
39 23 1
39 24 1
39 26 1
39 28 1
39 33 1
39 34 1
39 35 1
39 37 1
39 38 1
